Route #1: 20 41 22 15
Route #2: 75 93
Route #3: 32 33 53 73 95 24
Route #4: 69 16 55 76
Route #5: 86 9 92
Route #6: 1 70 54
Route #7: 4 13 74
Route #8: 7 2 45 43 29 36 72 57
Route #9: 59 60 82
Route #10: 30 85 11 79
Route #11: 27 97 19
Route #12: 44 67 88 40
Route #13: 8 17
Route #14: 38 47 26 48 96 64 34
Route #15: 83 51 81
Route #16: 23 61 100
Route #17: 5 12 58
Route #18: 71 62 99 98 89
Route #19: 25 65 78 42 28
Route #20: 50 91 52
Route #21: 35 46 31
Route #22: 68 90 84 66
Route #23: 18 10 39
Route #24: 14 49 6 37 87
Route #25: 3 77 63
Route #26: 21 56 94 80
Cost 27591.0000
Time 16.0009